; benchmark generated from python API
(set-info :status unknown)
(declare-fun W_S1_V4 () Bool)
(declare-fun W_S1_V1 () Bool)
(declare-fun R_E1_V4 () Bool)
(declare-fun R_E1_V2 () Bool)
(declare-fun R_E1_V3 () Bool)
(declare-fun R_S1_V4 () Bool)
(declare-fun R_S1_V2 () Bool)
(declare-fun R_S1_V3 () Bool)
(declare-fun R_S1_V1 () Bool)
(declare-fun DISJ_W_S1_R_E1 () Bool)
(declare-fun DISJ_W_S1_R_S1 () Bool)
(declare-fun W_S1_V3 () Bool)
(declare-fun W_S1_V2 () Bool)
(declare-fun R_E1_V1 () Bool)
(assert
 (let (($x4292 (forall ((V3_0 Int) )(forall ((V2_0 Int) )(forall ((V4_0 Int) )(forall ((MW_S1_V1 Bool) )(forall ((MW_S1_V3 Bool) )(forall ((MW_S1_V2 Bool) )(forall ((MW_S1_V4 Bool) )(forall ((S1_V3_!764 Int) )(forall ((S1_V3_!768 Int) )(forall ((S1_V3_!774 Int) )(forall ((S1_V3_!779 Int) )(forall ((S1_V4_!766 Int) )(forall ((S1_V4_!770 Int) )(forall ((S1_V4_!776 Int) )(forall ((S1_V4_!781 Int) )(forall ((S1_V1_!763 Int) )(forall ((S1_V1_!767 Int) )(forall ((S1_V1_!773 Int) )(forall ((S1_V1_!778 Int) )(forall ((S1_V2_!765 Int) )(forall ((S1_V2_!769 Int) )(forall ((S1_V2_!775 Int) )(forall ((S1_V2_!780 Int) )(forall ((E1_!762 Int) )(forall ((E1_!771 Int) )(forall ((E1_!772 Int) )(forall ((E1_!777 Int) )(forall ((E1_!782 Int) )(let ((?x1174 (ite MW_S1_V1 S1_V1_!763 E1_!762)))
 (let ((?x277 (+ 1 ?x1174)))
 (let ((?x5804 (ite MW_S1_V1 S1_V1_!767 ?x277)))
 (let (($x456 (and (= ?x5804 (+ (- 1) (ite MW_S1_V2 S1_V2_!780 V2_0))) (= (ite MW_S1_V3 S1_V3_!768 V3_0) (ite MW_S1_V3 S1_V3_!779 V3_0)) (= (ite MW_S1_V2 S1_V2_!769 V2_0) (ite MW_S1_V2 S1_V2_!780 V2_0)) (= (ite MW_S1_V4 S1_V4_!770 V4_0) (ite MW_S1_V4 S1_V4_!781 V4_0)))))
 (let ((?x2195 (- 1)))
 (let (($x1388 (<= E1_!782 (+ ?x2195 (ite MW_S1_V1 S1_V1_!778 (+ ?x2195 (ite MW_S1_V1 S1_V1_!773 (+ ?x2195 V2_0))))))))
 (let (($x678 (and (not (<= V2_0 E1_!762)) (not (<= (ite MW_S1_V2 S1_V2_!765 V2_0) ?x277)) (>= ?x5804 (+ ?x2195 (ite MW_S1_V2 S1_V2_!769 V2_0))) (not (<= V2_0 E1_!771)) (>= V2_0 (+ 1 E1_!772)) (>= (ite MW_S1_V1 S1_V1_!773 (+ ?x2195 V2_0)) (+ 1 E1_!777)) (not $x1388))))
 (let (($x3424 (not MW_S1_V2)))
 (let (($x3062 (= E1_!782 E1_!777)))
 (let (($x1191 (and (or (not R_E1_V3) (= (ite MW_S1_V3 S1_V3_!779 V3_0) (ite MW_S1_V3 S1_V3_!774 V3_0))) (or (not R_E1_V2) (= (ite MW_S1_V2 S1_V2_!780 V2_0) (ite MW_S1_V2 S1_V2_!775 V2_0))) (or (not R_E1_V4) (= (ite MW_S1_V4 S1_V4_!781 V4_0) (ite MW_S1_V4 S1_V4_!776 V4_0))))))
 (let (($x3609 (= E1_!782 E1_!772)))
 (let (($x5882 (and (or (not R_E1_V3) (= (ite MW_S1_V3 S1_V3_!779 V3_0) V3_0)) (or (not R_E1_V2) (= (ite MW_S1_V2 S1_V2_!780 V2_0) V2_0)) (or (not R_E1_V4) (= (ite MW_S1_V4 S1_V4_!781 V4_0) V4_0)))))
 (let (($x5086 (not $x5882)))
 (let (($x2646 (= E1_!777 E1_!772)))
 (let (($x3998 (and (or (not R_E1_V3) (= (ite MW_S1_V3 S1_V3_!774 V3_0) V3_0)) (or (not R_E1_V2) (= (ite MW_S1_V2 S1_V2_!775 V2_0) V2_0)) (or (not R_E1_V4) (= (ite MW_S1_V4 S1_V4_!776 V4_0) V4_0)))))
 (let (($x1734 (not $x3998)))
 (let (($x230 (= E1_!771 E1_!762)))
 (let ((?x5233 (ite MW_S1_V4 S1_V4_!776 V4_0)))
 (let (($x2620 (= ?x5233 V4_0)))
 (let (($x873 (not R_S1_V4)))
 (let (($x1405 (or $x873 $x2620)))
 (let ((?x5753 (ite MW_S1_V2 S1_V2_!775 V2_0)))
 (let (($x1964 (= ?x5753 V2_0)))
 (let (($x2673 (not R_S1_V2)))
 (let (($x5772 (or $x2673 $x1964)))
 (let ((?x2445 (ite MW_S1_V3 S1_V3_!774 V3_0)))
 (let (($x700 (= ?x2445 V3_0)))
 (let (($x61 (not R_S1_V3)))
 (let (($x1430 (or $x61 $x700)))
 (let (($x3173 (and (or (not R_S1_V1) (= (ite MW_S1_V1 S1_V1_!773 (+ ?x2195 V2_0)) V2_0)) $x1430 $x5772 $x1405)))
 (let (($x2892 (not $x3173)))
 (let (($x2283 (not R_S1_V1)))
 (let (($x1657 (and (or $x2283 (= (ite MW_S1_V1 S1_V1_!773 (+ ?x2195 V2_0)) (+ 2 ?x1174))) (or $x61 (= ?x2445 (ite MW_S1_V3 S1_V3_!764 V3_0))) (or $x2673 (= ?x5753 (ite MW_S1_V2 S1_V2_!765 V2_0))) (or $x873 (= ?x5233 (ite MW_S1_V4 S1_V4_!766 V4_0))))))
 (let (($x2205 (not $x1657)))
 (let ((?x3105 (ite MW_S1_V4 S1_V4_!766 V4_0)))
 (let (($x2896 (= ?x3105 V4_0)))
 (let (($x465 (or $x873 $x2896)))
 (let (($x1888 (or $x2673 (= (ite MW_S1_V2 S1_V2_!765 V2_0) V2_0))))
 (let (($x4022 (or $x61 (= (ite MW_S1_V3 S1_V3_!764 V3_0) V3_0))))
 (let (($x3785 (not (and (or $x2283 (= ?x1174 (+ (- 2) V2_0))) $x4022 $x1888 $x465))))
 (let (($x961 (or $x873 (= V4_0 ?x5233))))
 (let (($x3437 (or $x2673 (= V2_0 ?x5753))))
 (let (($x326 (or $x61 (= V3_0 ?x2445))))
 (let (($x5136 (and (or $x2283 (= E1_!762 (+ ?x2195 (ite MW_S1_V1 S1_V1_!773 (+ ?x2195 V2_0))))) $x326 $x3437 $x961)))
 (let (($x4810 (not $x5136)))
 (let (($x5937 (= V4_0 ?x3105)))
 (let (($x2142 (or $x873 $x5937)))
 (let (($x2902 (or $x2673 (= V2_0 (ite MW_S1_V2 S1_V2_!765 V2_0)))))
 (let (($x3342 (or $x61 (= V3_0 (ite MW_S1_V3 S1_V3_!764 V3_0)))))
 (let (($x709 (not (and (or $x2283 (= E1_!762 ?x277)) $x3342 $x2902 $x2142))))
 (let (($x5923 (and (or $x2283 (= (ite MW_S1_V1 S1_V1_!773 (+ ?x2195 V2_0)) (+ 1 E1_!762))) $x1430 $x5772 $x1405)))
 (let (($x612 (not $x5923)))
 (let (($x1780 (or (not (and (or $x2283 (= V2_0 (+ 2 ?x1174))) $x3342 $x2902 $x2142)) (= S1_V1_!773 S1_V1_!767))))
 (let (($x5762 (= S1_V1_!767 S1_V1_!763)))
 (let (($x398 (not (and (or $x2283 (= ?x1174 (+ ?x2195 E1_!762))) $x4022 $x1888 $x465))))
 (let (($x2031 (and (or $x2283 (= ?x1174 (+ (- 2) (ite MW_S1_V1 S1_V1_!773 (+ ?x2195 V2_0))))) (or $x61 (= (ite MW_S1_V3 S1_V3_!764 V3_0) ?x2445)) (or $x2673 (= (ite MW_S1_V2 S1_V2_!765 V2_0) ?x5753)) (or $x873 (= ?x3105 ?x5233)))))
 (let (($x1883 (not $x2031)))
 (let (($x3599 (and (or $x2283 (= V2_0 (ite MW_S1_V1 S1_V1_!773 (+ ?x2195 V2_0)))) $x326 $x3437 $x961)))
 (let (($x1737 (and (or $x398 (= S1_V3_!768 S1_V3_!764)) (or $x3785 (= S1_V3_!768 S1_V3_!774)) (or $x1883 (= S1_V3_!768 S1_V3_!779)) (or (not (or $x2283 (= V2_0 (+ 1 E1_!762)))) (= S1_V3_!774 S1_V3_!764)) (or (not $x3599) (= S1_V3_!774 S1_V3_!779)) (or $x612 (= S1_V3_!779 S1_V3_!764)) (or $x709 (= S1_V4_!766 S1_V4_!770)) (or (not (or $x2283 (= E1_!762 (+ ?x2195 V2_0)))) (= S1_V4_!766 S1_V4_!776)) (or $x4810 (= S1_V4_!766 S1_V4_!781)) (or $x3785 (= S1_V4_!770 S1_V4_!776)) (or $x1883 (= S1_V4_!770 S1_V4_!781)) (or $x2892 (= S1_V4_!781 S1_V4_!776)) (or $x398 $x5762) (or (not (or $x2283 (= V2_0 (+ 1 E1_!762)))) (= S1_V1_!773 S1_V1_!763)) $x1780 (or $x612 (= S1_V1_!778 S1_V1_!763)) (or $x2205 (= S1_V1_!778 S1_V1_!767)) (or $x2892 (= S1_V1_!778 S1_V1_!773)) (or $x709 (= S1_V2_!765 S1_V2_!769)) (or (not (or $x2283 (= E1_!762 (+ ?x2195 V2_0)))) (= S1_V2_!765 S1_V2_!775)) (or $x4810 (= S1_V2_!765 S1_V2_!780)) (or $x3785 (= S1_V2_!769 S1_V2_!775)) (or $x2205 (= S1_V2_!780 S1_V2_!769)) (or $x2892 (= S1_V2_!780 S1_V2_!775)) $x230 (= E1_!772 E1_!762) (= E1_!772 E1_!771) (or $x1734 (= E1_!777 E1_!762)) (or $x1734 (= E1_!777 E1_!771)) (or $x1734 $x2646) (or $x5086 (= E1_!782 E1_!762)) (or $x5086 (= E1_!782 E1_!771)) (or $x5086 $x3609) (or (not $x1191) $x3062) (or (not MW_S1_V1) W_S1_V1) $x3424 (or (not MW_S1_V4) W_S1_V4))))
 (or (not $x1737) (not $x678) $x456)))))))))))))))))))))))))))))))))))))))))))))))))))))))))))))
 )
 )
 )
 )
 )
 )
 )
 )
 )
 )
 )
 )
 )
 )
 )
 )
 )
 )
 )
 )
 )
 )
 )
 )
 )
 )
 )
 ))
 (let (($x1615 (= DISJ_W_S1_R_E1 (not (or R_E1_V3 (and W_S1_V4 R_E1_V4))))))
 (let (($x3186 (not (or (and W_S1_V1 R_S1_V1) R_S1_V3 (and W_S1_V4 R_S1_V4)))))
 (let (($x2379 (= DISJ_W_S1_R_S1 $x3186)))
 (let (($x2283 (not R_S1_V1)))
 (let (($x974 (and $x2283 DISJ_W_S1_R_S1)))
 (let (($x2202 (not W_S1_V1)))
 (let (($x2886 (and $x2202 DISJ_W_S1_R_E1)))
 (let (($x4890 (and DISJ_W_S1_R_S1 DISJ_W_S1_R_E1)))
 (let (($x5896 (or $x4890 $x2886 $x974)))
 (let (($x818 (or DISJ_W_S1_R_E1 $x2202)))
 (let (($x1736 (not W_S1_V2)))
 (let (($x1152 (not R_E1_V1)))
 (and $x1152 $x1736 $x818 $x5896 W_S1_V3 $x2379 $x1615 $x4292)))))))))))))))
(check-sat)
